<number of tasks>
50

<cycle time>
1000

<order strength>
0.198


<task times>
1 607
2 439
3 477
4 319
5 588
6 313
7 586
8 608
9 274
10 602
11 534
12 368
13 491
14 286
15 399
16 484
17 677
18 700
19 598
20 469
21 555
22 414
23 578
24 372
25 576
26 766
27 678
28 414
29 548
30 336
31 513
32 313
33 640
34 635
35 414
36 729
37 186
38 445
39 495
40 394
41 382
42 516
43 623
44 678
45 407
46 430
47 467
48 551
49 507
50 553

<precedence relations>
1,7
2,8
3,6
3,10
3,11
3,23
4,31
4,35
5,9
5,41
6,12
7,13
8,14
9,15
10,15
11,36
12,17
13,16
14,18
14,19
14,20
14,23
15,21
15,22
15,24
16,26
17,27
18,25
18,28
19,49
20,50
21,29
21,31
22,32
22,42
23,28
24,30
25,33
26,34
27,35
31,36
33,37
34,38
35,39
35,40
35,41
36,42
36,43
36,44
36,45
37,46
38,49
39,47
40,48
44,50

<end>
